CARROOOOOOOOOOCAAAAAAAAAAAAAA
Tried aggregator 1 time.
MIP Presolve eliminated 0 rows and 1 columns.
Reduced MIP has 437692 rows, 150 columns, and 1750768 nonzeros.
Reduced MIP has 150 binaries, 0 generals, 0 SOSs, and 0 indicators.
Probing time =    0.03 sec.
Tried aggregator 1 time.
Presolve time =    1.24 sec.
Found feasible solution after 1.38 sec.  Objective = 150.0000
Probing time =    0.03 sec.
MIP emphasis: balance optimality and feasibility.
MIP search method: dynamic search.
Parallel mode: none, using 1 thread.
Root relaxation solution time =    3.20 sec.

        Nodes                                         Cuts/
   Node  Left     Objective  IInf  Best Integer    Best Bound    ItCnt     Gap

*     0+    0                          150.0000                   3476     --- 
      0     0       35.0000    70      150.0000       35.0000     3476   76.67%
      0     0       36.1111   117      150.0000     Cuts: 274     3917   75.93%
      0     0       37.0667   105      150.0000     Cuts: 542     4196   75.29%
      0     0       37.7022   112      150.0000 ZeroHalf: 520     4446   74.87%
      0     0       38.4024   118      150.0000 ZeroHalf: 318     4840   74.40%
      0     0       38.8773   123      150.0000 ZeroHalf: 382     5185   74.08%
*     0     0      integral     0       39.0000 ZeroHalf: 218     5218    0.00%
      0     0        cutoff             39.0000       39.0000     5218    0.00%
Elapsed real time = 246.50 sec. (tree size =  0.00 MB, solutions = 2)

Zero-half cuts applied:  284

Root node processing (before b&c):
  Real time             =  245.27
Sequential b&c:
  Real time             =    0.00
                          -------
Total (root+branch&cut) =  245.27 sec.
Nodes: 0
OBJ: 39
1 1 1 0 1 0 1 1 1 1 1 1 1 1 1 0 1 1 1 1 1 0 0 1 1 0 1 1 1 1 1 1 0 1 1 1 1 1 1 1 0 1 1 1 0 1 0 1 0 1 1 0 1 1 0 0 0 1 1 1 1 0 1 0 0 1 0 1 1 0 0 0 0 1 1 0 1 1 0 1 1 1 1 1 0 0 1 1 1 1 1 1 1 1 0 1 0 0 1 0 1 1 1 1 0 1 1 1 1 1 1 1 1 1 0 1 0 1 1 1 1 0 1 1 1 0 1 1 0 1 1 1 1 1 1 0 1 1 1 1 1 1 1 1 0 1 1 1 1 1 
